NAME : problems/40-tsp/instance-26.tsp
COMMENT : No Comment
TYPE : TSP
DIMENSION: 40
EDGE_WEIGHT_TYPE : EUC_2D
NODE_COORD_SECTION
1 4823 4158 
2 1451 8107 
3 2924 4921 
4 384 7628 
5 183 9984 
6 3003 1771 
7 4748 7146 
8 3169 2817 
9 6119 2327 
10 6778 8879 
11 351 2539 
12 2781 6588 
13 7599 3381 
14 3835 781 
15 3687 4569 
16 2934 4612 
17 6189 2321 
18 4586 7214 
19 3696 6554 
20 4661 300 
21 150 1332 
22 1592 5341 
23 5922 7004 
24 3844 8742 
25 866 319 
26 511 2636 
27 636 7936 
28 8845 734 
29 4050 9864 
30 7448 9525 
31 4558 93 
32 82 5344 
33 5730 5789 
34 3784 2786 
35 1951 7047 
36 8944 9019 
37 2653 8076 
38 5908 5638 
39 8876 4363 
40 3015 5704 
EOF
